c File: data_files/evolved_graphs/g3725.col
c
c Auto generated graph
c
p edge 100 1232
e 1 4
e 1 8
e 1 14
e 1 20
e 1 36
e 1 38
e 1 39
e 1 44
e 1 45
e 1 46
e 1 48
e 1 52
e 1 56
e 1 62
e 1 64
e 1 65
e 1 66
e 1 67
e 1 70
e 1 72
e 1 77
e 1 86
e 1 91
e 1 93
e 1 94
e 2 5
e 2 7
e 2 13
e 2 21
e 2 24
e 2 26
e 2 41
e 2 42
e 2 44
e 2 45
e 2 53
e 2 59
e 2 61
e 2 62
e 2 65
e 2 67
e 2 69
e 2 71
e 2 77
e 2 80
e 2 81
e 2 85
e 3 6
e 3 11
e 3 16
e 3 19
e 3 21
e 3 30
e 3 37
e 3 40
e 3 46
e 3 48
e 3 50
e 3 54
e 3 56
e 3 58
e 3 63
e 3 66
e 3 68
e 3 73
e 3 79
e 3 97
e 4 5
e 4 22
e 4 26
e 4 42
e 4 43
e 4 44
e 4 49
e 4 51
e 4 53
e 4 57
e 4 66
e 4 73
e 4 78
e 4 89
e 4 90
e 4 95
e 4 96
e 5 23
e 5 29
e 5 32
e 5 37
e 5 41
e 5 44
e 5 46
e 5 56
e 5 58
e 5 59
e 5 67
e 5 71
e 5 73
e 5 90
e 5 96
e 6 30
e 6 37
e 6 41
e 6 44
e 6 49
e 6 52
e 6 55
e 6 65
e 6 69
e 6 72
e 6 73
e 6 83
e 6 84
e 6 87
e 6 99
e 7 12
e 7 15
e 7 37
e 7 38
e 7 40
e 7 42
e 7 45
e 7 52
e 7 55
e 7 61
e 7 63
e 7 65
e 7 66
e 7 67
e 7 71
e 7 74
e 7 90
e 7 97
e 7 98
e 8 15
e 8 22
e 8 28
e 8 33
e 8 37
e 8 40
e 8 41
e 8 43
e 8 47
e 8 56
e 8 63
e 8 67
e 8 68
e 8 70
e 8 74
e 8 78
e 8 88
e 9 19
e 9 38
e 9 39
e 9 41
e 9 44
e 9 52
e 9 54
e 9 57
e 9 62
e 9 65
e 9 72
e 9 74
e 9 77
e 9 79
e 9 88
e 9 90
e 10 12
e 10 19
e 10 21
e 10 54
e 10 57
e 10 63
e 10 69
e 10 73
e 11 27
e 11 36
e 11 39
e 11 43
e 11 58
e 11 59
e 11 69
e 11 72
e 11 73
e 11 74
e 11 77
e 11 88
e 11 90
e 11 95
e 12 13
e 12 37
e 12 38
e 12 40
e 12 44
e 12 46
e 12 49
e 12 50
e 12 57
e 12 61
e 12 62
e 12 63
e 12 66
e 12 72
e 12 75
e 12 76
e 12 79
e 12 84
e 12 88
e 13 17
e 13 31
e 13 38
e 13 44
e 13 45
e 13 46
e 13 47
e 13 50
e 13 51
e 13 63
e 13 66
e 13 68
e 13 69
e 13 74
e 13 77
e 13 79
e 13 93
e 13 98
e 14 18
e 14 21
e 14 32
e 14 36
e 14 39
e 14 43
e 14 45
e 14 54
e 14 55
e 14 63
e 14 71
e 14 72
e 14 85
e 14 90
e 14 97
e 15 41
e 15 42
e 15 43
e 15 47
e 15 52
e 15 54
e 15 55
e 15 60
e 15 62
e 15 63
e 15 64
e 15 65
e 15 69
e 15 75
e 16 17
e 16 24
e 16 35
e 16 40
e 16 46
e 16 50
e 16 51
e 16 53
e 16 55
e 16 61
e 16 63
e 16 66
e 16 67
e 16 73
e 16 74
e 16 76
e 16 93
e 16 96
e 17 19
e 17 40
e 17 45
e 17 46
e 17 50
e 17 54
e 17 57
e 17 62
e 17 63
e 17 66
e 17 67
e 17 72
e 17 77
e 17 82
e 17 94
e 17 96
e 18 29
e 18 33
e 18 36
e 18 40
e 18 42
e 18 43
e 18 44
e 18 63
e 18 70
e 18 71
e 18 72
e 18 73
e 18 75
e 18 84
e 18 88
e 18 90
e 19 47
e 19 53
e 19 54
e 19 57
e 19 64
e 19 65
e 19 69
e 19 74
e 19 79
e 19 85
e 19 87
e 19 96
e 20 23
e 20 38
e 20 44
e 20 45
e 20 47
e 20 49
e 20 50
e 20 51
e 20 52
e 20 58
e 20 59
e 20 60
e 20 64
e 20 74
e 20 77
e 20 83
e 20 91
e 20 92
e 21 40
e 21 50
e 21 53
e 21 55
e 21 56
e 21 57
e 21 60
e 21 61
e 21 62
e 21 65
e 21 73
e 21 74
e 21 75
e 21 86
e 21 87
e 21 91
e 21 99
e 22 37
e 22 38
e 22 40
e 22 55
e 22 59
e 22 60
e 22 61
e 22 63
e 22 73
e 22 83
e 22 86
e 23 33
e 23 45
e 23 54
e 23 55
e 23 64
e 23 65
e 23 70
e 23 71
e 23 72
e 23 73
e 23 74
e 23 80
e 23 91
e 23 94
e 23 96
e 24 33
e 24 35
e 24 38
e 24 39
e 24 41
e 24 42
e 24 43
e 24 44
e 24 46
e 24 48
e 24 53
e 24 63
e 24 64
e 24 65
e 24 70
e 24 76
e 24 77
e 24 78
e 24 90
e 24 96
e 25 26
e 25 42
e 25 48
e 25 49
e 25 52
e 25 55
e 25 56
e 25 57
e 25 59
e 25 60
e 25 66
e 25 70
e 25 73
e 25 82
e 25 87
e 25 97
e 25 99
e 26 29
e 26 32
e 26 35
e 26 36
e 26 40
e 26 43
e 26 44
e 26 49
e 26 50
e 26 57
e 26 58
e 26 63
e 26 68
e 26 74
e 26 77
e 26 83
e 26 93
e 27 38
e 27 41
e 27 42
e 27 45
e 27 54
e 27 55
e 27 57
e 27 59
e 27 60
e 27 62
e 27 64
e 27 66
e 27 67
e 27 69
e 27 73
e 27 76
e 27 86
e 27 90
e 28 33
e 28 36
e 28 38
e 28 41
e 28 43
e 28 50
e 28 51
e 28 54
e 28 55
e 28 63
e 28 64
e 28 65
e 28 67
e 28 70
e 28 71
e 28 75
e 28 77
e 28 79
e 28 80
e 28 87
e 28 96
e 29 30
e 29 40
e 29 41
e 29 48
e 29 49
e 29 50
e 29 53
e 29 54
e 29 57
e 29 62
e 29 63
e 29 67
e 29 68
e 29 71
e 29 74
e 29 77
e 29 83
e 29 86
e 29 89
e 29 95
e 30 37
e 30 38
e 30 41
e 30 42
e 30 50
e 30 51
e 30 52
e 30 54
e 30 55
e 30 57
e 30 59
e 30 64
e 30 70
e 30 76
e 30 77
e 30 81
e 30 90
e 30 95
e 30 96
e 30 97
e 30 99
e 31 36
e 31 40
e 31 43
e 31 44
e 31 48
e 31 50
e 31 56
e 31 58
e 31 65
e 31 66
e 31 67
e 31 69
e 31 70
e 31 73
e 31 76
e 31 86
e 31 95
e 31 100
e 32 33
e 32 40
e 32 43
e 32 44
e 32 46
e 32 54
e 32 56
e 32 59
e 32 63
e 32 65
e 32 66
e 32 68
e 32 70
e 32 71
e 32 77
e 32 78
e 32 79
e 32 81
e 32 83
e 32 85
e 32 86
e 32 87
e 32 90
e 32 94
e 32 95
e 33 36
e 33 37
e 33 39
e 33 41
e 33 43
e 33 45
e 33 46
e 33 49
e 33 53
e 33 63
e 33 65
e 33 68
e 33 69
e 33 74
e 33 75
e 33 77
e 33 89
e 33 90
e 34 36
e 34 37
e 34 43
e 34 46
e 34 50
e 34 64
e 34 67
e 34 68
e 34 71
e 34 73
e 34 75
e 34 78
e 34 80
e 34 81
e 34 82
e 34 83
e 34 84
e 34 85
e 34 86
e 34 89
e 34 90
e 34 91
e 34 96
e 34 98
e 35 37
e 35 42
e 35 47
e 35 56
e 35 57
e 35 58
e 35 59
e 35 70
e 35 71
e 35 73
e 35 76
e 35 80
e 35 87
e 35 88
e 35 89
e 35 90
e 35 91
e 35 94
e 35 95
e 35 96
e 35 97
e 35 98
e 36 41
e 36 42
e 36 44
e 36 48
e 36 49
e 36 69
e 36 70
e 36 71
e 36 78
e 36 79
e 36 80
e 36 81
e 36 82
e 36 84
e 36 85
e 36 93
e 36 94
e 36 95
e 36 97
e 36 98
e 37 38
e 37 51
e 37 55
e 37 58
e 37 73
e 37 75
e 37 80
e 37 83
e 37 86
e 37 88
e 37 89
e 37 91
e 37 92
e 37 93
e 37 94
e 37 96
e 37 98
e 37 100
e 38 71
e 38 74
e 38 78
e 38 79
e 38 80
e 38 81
e 38 82
e 38 83
e 38 84
e 38 86
e 38 89
e 38 91
e 38 94
e 38 95
e 38 96
e 38 97
e 38 98
e 39 51
e 39 65
e 39 73
e 39 75
e 39 78
e 39 82
e 39 84
e 39 87
e 39 91
e 39 94
e 39 95
e 39 97
e 39 99
e 40 49
e 40 65
e 40 79
e 40 80
e 40 81
e 40 82
e 40 85
e 40 86
e 40 88
e 40 90
e 40 92
e 40 93
e 40 94
e 40 99
e 40 100
e 41 44
e 41 50
e 41 53
e 41 64
e 41 65
e 41 68
e 41 78
e 41 79
e 41 80
e 41 81
e 41 82
e 41 83
e 41 87
e 41 89
e 41 90
e 41 91
e 41 94
e 41 95
e 41 96
e 41 98
e 41 99
e 42 46
e 42 67
e 42 74
e 42 78
e 42 80
e 42 84
e 42 87
e 42 88
e 42 89
e 42 91
e 42 93
e 42 94
e 42 95
e 42 99
e 43 44
e 43 56
e 43 72
e 43 78
e 43 80
e 43 84
e 43 86
e 43 87
e 43 88
e 43 90
e 43 91
e 43 94
e 43 97
e 43 100
e 44 65
e 44 69
e 44 74
e 44 78
e 44 79
e 44 81
e 44 82
e 44 84
e 44 87
e 44 88
e 44 90
e 44 91
e 44 92
e 44 95
e 44 96
e 44 97
e 44 98
e 44 99
e 44 100
e 45 53
e 45 59
e 45 65
e 45 73
e 45 77
e 45 82
e 45 85
e 45 88
e 45 89
e 45 93
e 45 94
e 46 47
e 46 48
e 46 62
e 46 78
e 46 79
e 46 80
e 46 82
e 46 84
e 46 85
e 46 86
e 46 87
e 46 88
e 46 89
e 46 95
e 46 96
e 46 97
e 46 98
e 47 52
e 47 53
e 47 77
e 47 78
e 47 79
e 47 80
e 47 81
e 47 82
e 47 84
e 47 87
e 47 88
e 47 90
e 47 91
e 47 96
e 47 98
e 47 99
e 48 60
e 48 73
e 48 79
e 48 80
e 48 81
e 48 83
e 48 84
e 48 85
e 48 86
e 48 87
e 48 88
e 48 91
e 48 93
e 48 94
e 48 97
e 49 57
e 49 64
e 49 71
e 49 74
e 49 77
e 49 78
e 49 80
e 49 81
e 49 82
e 49 84
e 49 85
e 49 86
e 49 87
e 49 90
e 49 92
e 49 93
e 49 94
e 49 97
e 49 98
e 49 99
e 49 100
e 50 51
e 50 62
e 50 66
e 50 67
e 50 69
e 50 78
e 50 80
e 50 81
e 50 83
e 50 85
e 50 89
e 50 90
e 50 91
e 50 92
e 50 95
e 50 96
e 50 97
e 50 98
e 51 53
e 51 70
e 51 80
e 51 82
e 51 85
e 51 87
e 51 88
e 51 91
e 51 92
e 51 95
e 52 60
e 52 67
e 52 70
e 52 79
e 52 80
e 52 81
e 52 82
e 52 83
e 52 84
e 52 86
e 52 87
e 52 89
e 52 93
e 52 95
e 53 80
e 53 82
e 53 84
e 53 88
e 53 91
e 53 94
e 53 95
e 53 96
e 53 97
e 53 98
e 53 99
e 54 55
e 54 71
e 54 79
e 54 82
e 54 83
e 54 85
e 54 86
e 54 90
e 54 91
e 54 92
e 54 93
e 54 95
e 54 96
e 54 97
e 55 67
e 55 73
e 55 77
e 55 78
e 55 84
e 55 86
e 55 87
e 55 89
e 55 90
e 55 95
e 55 98
e 55 100
e 56 67
e 56 79
e 56 82
e 56 95
e 56 96
e 56 99
e 56 100
e 57 68
e 57 70
e 57 78
e 57 83
e 57 84
e 57 85
e 57 87
e 57 88
e 57 91
e 57 93
e 57 95
e 57 96
e 57 100
e 58 63
e 58 74
e 58 76
e 58 80
e 58 81
e 58 83
e 58 85
e 58 86
e 58 88
e 58 89
e 58 90
e 58 93
e 58 96
e 58 98
e 58 99
e 58 100
e 59 60
e 59 75
e 59 77
e 59 78
e 59 79
e 59 81
e 59 82
e 59 83
e 59 85
e 59 88
e 59 89
e 59 90
e 59 91
e 59 92
e 59 94
e 59 95
e 59 97
e 59 99
e 59 100
e 60 71
e 60 72
e 60 78
e 60 79
e 60 80
e 60 81
e 60 82
e 60 83
e 60 85
e 60 87
e 60 95
e 60 97
e 60 100
e 61 79
e 61 80
e 61 81
e 61 85
e 61 88
e 61 91
e 61 93
e 61 94
e 61 95
e 61 96
e 61 99
e 61 100
e 62 65
e 62 78
e 62 80
e 62 82
e 62 83
e 62 84
e 62 85
e 62 86
e 62 87
e 62 88
e 62 90
e 62 92
e 63 69
e 63 73
e 63 74
e 63 78
e 63 79
e 63 80
e 63 81
e 63 84
e 63 85
e 63 86
e 63 87
e 63 91
e 63 94
e 63 95
e 63 96
e 63 97
e 63 98
e 64 67
e 64 73
e 64 77
e 64 78
e 64 81
e 64 87
e 64 88
e 64 90
e 64 93
e 64 97
e 64 98
e 64 99
e 65 71
e 65 78
e 65 81
e 65 83
e 65 86
e 65 87
e 65 94
e 65 95
e 66 78
e 66 80
e 66 81
e 66 83
e 66 84
e 66 85
e 66 86
e 66 87
e 66 89
e 66 90
e 66 92
e 66 94
e 66 95
e 66 96
e 66 98
e 66 99
e 66 100
e 67 78
e 67 79
e 67 81
e 67 83
e 67 87
e 67 90
e 67 94
e 67 95
e 67 96
e 67 97
e 68 80
e 68 81
e 68 83
e 68 84
e 68 85
e 68 88
e 68 91
e 68 92
e 68 94
e 68 95
e 68 98
e 68 100
e 69 79
e 69 80
e 69 82
e 69 83
e 69 86
e 69 89
e 69 93
e 69 94
e 69 98
e 69 99
e 69 100
e 70 78
e 70 85
e 70 86
e 70 89
e 70 90
e 70 92
e 70 93
e 70 94
e 70 95
e 70 96
e 70 97
e 70 99
e 70 100
e 71 78
e 71 80
e 71 81
e 71 82
e 71 86
e 71 87
e 71 89
e 71 90
e 71 91
e 71 92
e 71 94
e 71 98
e 72 79
e 72 81
e 72 83
e 72 84
e 72 85
e 72 87
e 72 88
e 72 89
e 72 90
e 72 91
e 72 92
e 72 93
e 72 94
e 72 96
e 72 98
e 72 99
e 73 77
e 73 86
e 73 90
e 73 91
e 73 92
e 73 93
e 73 94
e 73 97
e 73 98
e 74 78
e 74 81
e 74 82
e 74 83
e 74 85
e 74 87
e 74 96
e 74 99
e 74 100
e 75 77
e 75 80
e 75 81
e 75 82
e 75 83
e 75 84
e 75 87
e 75 88
e 75 92
e 75 94
e 75 98
e 75 99
e 75 100
e 76 80
e 76 83
e 76 84
e 76 85
e 76 87
e 76 88
e 76 89
e 76 90
e 76 91
e 76 93
e 76 95
e 76 97
e 76 99
e 76 100
e 77 78
e 77 79
e 77 80
e 77 81
e 77 82
e 77 84
e 77 85
e 77 87
e 77 89
e 77 91
e 77 94
e 77 96
e 77 99
e 77 100
e 78 83
e 79 98
e 80 91
e 80 95
e 80 100
e 81 86
e 81 96
e 81 97
e 82 99
e 83 87
e 83 94
e 83 97
e 85 89
e 85 93
e 86 89
e 86 93
e 86 96
e 88 96
e 89 92
e 90 91
e 90 92
e 91 92
e 92 97
e 95 96
e 95 99
